40
3 1 222
4 0 198
4 2 247
6 4 278
6 5 180
7 2 9
8 6 215
9 6 135
10 7 100
11 3 108
13 8 8
14 4 263
14 5 77
14 9 189
15 2 263
15 12 228
16 14 118
17 5 239
18 3 225
18 5 69
18 8 147
18 13 33
19 2 314
19 4 168
19 13 54
19 17 145
20 2 72
20 5 297
20 6 225
20 11 189
21 3 114
21 5 217
21 6 61
21 10 176
21 13 228
21 14 101
21 15 54
23 5 109
23 8 179
23 15 57
23 17 99
23 18 71
23 20 105
24 12 282
24 20 54
24 23 201
25 5 306
25 7 67
26 5 81
26 10 148
26 13 201
26 15 212
27 7 118
27 8 35
27 10 189
27 15 158
28 3 151
30 6 290
30 11 229
30 17 303
30 20 145
30 29 137
31 4 201
31 17 44
33 1 38
34 7 96
34 19 298
36 15 89
36 18 32
36 25 282
37 3 89
37 10 114
37 21 126
38 7 179
39 9 160
39 22 311
39 34 85
